% Auto-generated by scripts/generate_dzn.py
% problem_type   = regex
% instance       = regex_40
% source_json    = instances_json/2_high_blowup/regex_40.json
% blowup         = 14.159090909090908
% representation = NFA

mode = 1;

var_count = 48;
n_constraints = 2;
Q = 27;
S = 3;
q0 = [1, 1];
F = [{17}, {27}];
weights = [6, 9, 10, 3, 7, 3, 5, 2, 5, 7, 1, 10, 5, 6, 6, 1, 3, 1, 6, 2, 8, 7, 7, 1, 9, 6, 7, 7, 9, 3, 1, 2, 7, 4, 4, 4, 9, 4, 8, 3, 10, 6, 3, 7, 2, 5, 5, 4];
d_dfa = array3d(1..2, 1..27, 1..3, [
  % k = 1
    0, 0, 0,
    0, 0, 0,
    0, 0, 0,
    0, 0, 0,
    0, 0, 0,
    0, 0, 0,
    0, 0, 0,
    0, 0, 0,
    0, 0, 0,
    0, 0, 0,
    0, 0, 0,
    0, 0, 0,
    0, 0, 0,
    0, 0, 0,
    0, 0, 0,
    0, 0, 0,
    0, 0, 0,
    0, 0, 0,
    0, 0, 0,
    0, 0, 0,
    0, 0, 0,
    0, 0, 0,
    0, 0, 0,
    0, 0, 0,
    0, 0, 0,
    0, 0, 0,
    0, 0, 0,

  % k = 2
    0, 0, 0,
    0, 0, 0,
    0, 0, 0,
    0, 0, 0,
    0, 0, 0,
    0, 0, 0,
    0, 0, 0,
    0, 0, 0,
    0, 0, 0,
    0, 0, 0,
    0, 0, 0,
    0, 0, 0,
    0, 0, 0,
    0, 0, 0,
    0, 0, 0,
    0, 0, 0,
    0, 0, 0,
    0, 0, 0,
    0, 0, 0,
    0, 0, 0,
    0, 0, 0,
    0, 0, 0,
    0, 0, 0,
    0, 0, 0,
    0, 0, 0,
    0, 0, 0,
    0, 0, 0
]);
d_nfa = array3d(1..2, 1..27, 1..3, [
  % k = 1
    {1}, {1}, {1, 2},
    {}, {}, {3},
    {4}, {}, {},
    {5}, {5}, {5},
    {6}, {6}, {6},
    {7}, {7}, {7},
    {8}, {8}, {8},
    {9}, {9}, {9},
    {10}, {10}, {10},
    {11}, {11}, {11},
    {12}, {12}, {12},
    {13}, {13}, {13},
    {14}, {14}, {14},
    {15}, {15}, {15},
    {16}, {16}, {16},
    {17}, {17}, {17},
    {}, {}, {},
    {}, {}, {},
    {}, {}, {},
    {}, {}, {},
    {}, {}, {},
    {}, {}, {},
    {}, {}, {},
    {}, {}, {},
    {}, {}, {},
    {}, {}, {},
    {}, {}, {},

  % k = 2
    {2}, {1}, {1},
    {3}, {2}, {2},
    {4}, {3}, {3},
    {5}, {4}, {4},
    {6}, {5}, {5},
    {7}, {6}, {6},
    {8}, {7}, {7},
    {9}, {8}, {8},
    {10}, {9}, {9},
    {11}, {10}, {10},
    {12}, {11}, {11},
    {13}, {12}, {12},
    {14}, {13}, {13},
    {15}, {14}, {14},
    {16}, {15}, {15},
    {17}, {16}, {16},
    {18}, {17}, {17},
    {19}, {18}, {18},
    {20}, {19}, {19},
    {21}, {20}, {20},
    {22}, {21}, {21},
    {23}, {22}, {22},
    {24}, {23}, {23},
    {25}, {24}, {24},
    {26}, {25}, {25},
    {27}, {26}, {26},
    {}, {27}, {27}
]);
